NAME: ACTUAL_TOURS/amz1891
TYPE: TOUR
COMMENT: RouteID_c8951140-27a4-4b90-b3c8-1106ddf24022
DIMENSION: 147
TOUR_SECTION
135
16
23
2
21
99
111
47
120
84
121
29
89
122
75
106
108
66
98
10
147
33
68
87
46
34
100
22
116
56
137
42
48
27
125
49
93
109
92
78
51
50
91
32
30
129
38
52
35
5
101
39
88
142
55
134
15
144
76
132
133
96
4
36
41
57
90
58
103
138
79
105
80
128
114
124
19
123
112
83
63
14
9
117
73
95
141
69
72
86
81
102
12
143
59
17
94
60
77
113
104
24
130
127
20
45
97
62
54
13
28
37
126
67
146
70
8
44
115
25
7
40
140
82
74
145
31
6
107
43
131
65
26
53
110
61
71
1
64
18
139
119
136
118
85
3
11
-1
EOF
